695,318
829,429
742,21
1071,406
504,378
468,298
453,332
737,51
1051,526
698,382
518,86
1055,216
787,352
681,736
745,605
972,195
464,-21
681,16
1045,670
738,424
801,36
575,352
600,566
690,378
596,433
801,776
699,524
196,563
1117,89
751,309
